************************************************************************
file with basedata            : j901_.bas
initial value random generator: 1644906441
************************************************************************
projects                      :  1
jobs (incl. supersource/sink ):  92
horizon                       :  468
RESOURCES
  - renewable                 :  4   R
  - nonrenewable              :  0   N
  - doubly constrained        :  0   D
************************************************************************
PROJECT INFORMATION:
pronr.  #jobs rel.date duedate tardcost  MPM-Time
    1     90      0       84       29       84
************************************************************************
PRECEDENCE RELATIONS:
jobnr.    #modes  #successors   successors
   1        1          3           2   3   4
   2        1          3           5  10  31
   3        1          3           6  12  29
   4        1          3           9  30  34
   5        1          3           8  11  41
   6        1          2           7  45
   7        1          2          54  83
   8        1          3          14  15  73
   9        1          1          27
  10        1          2          60  72
  11        1          3          17  43  49
  12        1          2          13  24
  13        1          3          19  21  37
  14        1          3          16  20  23
  15        1          2          57  66
  16        1          3          18  22  38
  17        1          2          28  67
  18        1          1          36
  19        1          1          73
  20        1          1          58
  21        1          3          32  56  76
  22        1          2          25  74
  23        1          2          47  69
  24        1          1          72
  25        1          2          26  35
  26        1          1          91
  27        1          2          28  33
  28        1          1          85
  29        1          1          62
  30        1          2          42  52
  31        1          1          39
  32        1          1          40
  33        1          1          65
  34        1          1          61
  35        1          1          44
  36        1          2          48  63
  37        1          1          53
  38        1          2          46  80
  39        1          2          55  64
  40        1          2          51  62
  41        1          1          57
  42        1          2          50  91
  43        1          1          82
  44        1          1          54
  45        1          1          86
  46        1          1          63
  47        1          1          50
  48        1          2          69  70
  49        1          2          56  71
  50        1          1          59
  51        1          2          61  88
  52        1          1          81
  53        1          2          55  90
  54        1          1          79
  55        1          1          68
  56        1          1          90
  57        1          1          62
  58        1          1          83
  59        1          2          65  75
  60        1          2          79  84
  61        1          1          79
  62        1          1          80
  63        1          1          70
  64        1          1          70
  65        1          2          66  67
  66        1          1          86
  67        1          1          81
  68        1          1          78
  69        1          2          75  77
  70        1          2          84  89
  71        1          1          73
  72        1          1          85
  73        1          1          81
  74        1          1          75
  75        1          1          89
  76        1          1          78
  77        1          1          88
  78        1          1          89
  79        1          1          80
  80        1          1          87
  81        1          1          86
  82        1          1          88
  83        1          1          84
  84        1          1          85
  85        1          1          87
  86        1          1          87
  87        1          1          90
  88        1          1          91
  89        1          1          92
  90        1          1          92
  91        1          1          92
  92        1          0        
************************************************************************
REQUESTS/DURATIONS:
jobnr. mode duration  R 1  R 2  R 3  R 4
------------------------------------------------------------------------
  1      1     0       0    0    0    0
  2      1     4       0    0    8    0
  3      1     9       0    0    0    6
  4      1    10       0    0    0    4
  5      1     3       0    7    0    0
  6      1     9       0    0    0    9
  7      1     1       0    0   10    0
  8      1     1       0    0    0    8
  9      1     1       3    0    0    0
 10      1     2       0    8    0    0
 11      1     2       0    0    0    4
 12      1    10       0    0    4    0
 13      1     2       0    4    0    0
 14      1     8       0    0    4    0
 15      1     4       7    0    0    0
 16      1     8       6    0    0    0
 17      1     4       0    0    0    4
 18      1     7       0    0    0    7
 19      1     5       0    0    7    0
 20      1     4       2    0    0    0
 21      1     1       1    0    0    0
 22      1     2       0    0    0   10
 23      1     1       0    0    9    0
 24      1     4       0    0    0    3
 25      1     3       0    0    0    7
 26      1     5       0    0    0    4
 27      1     6       0    8    0    0
 28      1     5       7    0    0    0
 29      1     2       0    0    9    0
 30      1     9       6    0    0    0
 31      1     9       2    0    0    0
 32      1     2       0    0    1    0
 33      1     9       0    8    0    0
 34      1     6       5    0    0    0
 35      1     3       0    3    0    0
 36      1    10       0    0    0   10
 37      1     5       0    2    0    0
 38      1     9       0    0    0    2
 39      1     9       0    7    0    0
 40      1     3       0    0    0    1
 41      1    10       2    0    0    0
 42      1     7       0    9    0    0
 43      1     6       0    5    0    0
 44      1    10       2    0    0    0
 45      1     9       0    0    3    0
 46      1     2       9    0    0    0
 47      1     1       0    0    0    8
 48      1     8       4    0    0    0
 49      1     4       0    0    0    8
 50      1     9      10    0    0    0
 51      1     4       0    0    0    2
 52      1     5       0    4    0    0
 53      1     6       0    6    0    0
 54      1     3       0    0    0    2
 55      1     4       0    0    6    0
 56      1     3       0    2    0    0
 57      1     1       0    0    1    0
 58      1     2       0    0    0    2
 59      1     9       0    0    0    6
 60      1     3       0    0    0    9
 61      1     3       0    3    0    0
 62      1     1       0    0    4    0
 63      1    10       0    0    7    0
 64      1     5       0    0    6    0
 65      1     6       3    0    0    0
 66      1     4       0    2    0    0
 67      1     5       0   10    0    0
 68      1     7       0    0    0    7
 69      1     5       0    6    0    0
 70      1     9       5    0    0    0
 71      1     3       0    0    7    0
 72      1     4       6    0    0    0
 73      1     8       4    0    0    0
 74      1     5       0    9    0    0
 75      1     9       0    5    0    0
 76      1     6       0    0    6    0
 77      1     2       2    0    0    0
 78      1     6       0    0    0    1
 79      1     6       6    0    0    0
 80      1     7       0    0    9    0
 81      1     2       0    0    0    1
 82      1     5       0    0   10    0
 83      1     1       4    0    0    0
 84      1     2       0    0    3    0
 85      1    10       2    0    0    0
 86      1     7       0    0    4    0
 87      1     2       0    0    6    0
 88      1     3       0    0    0   10
 89      1     7       0    3    0    0
 90      1    10       6    0    0    0
 91      1     5       0    1    0    0
 92      1     0       0    0    0    0
************************************************************************
RESOURCEAVAILABILITIES:
  R 1  R 2  R 3  R 4
   13   14   13   14
************************************************************************
Job	#risk	Type	VL	mu	sigma	Type	VL	mu	sigma
8	2	3	0.2	3.75	0.75	5	0.2	6.25	1.25
9	1	6	0.2	7.5	1.5
13	2	1	0.2	1.25	0.25	6	0.05	7.5	0.375
17	2	6	0.05	7.5	0.375	7	0.05	8.75	0.4375
18	1	7	0.1	8.75	0.875
19	1	8	0.1	10	1
21	2	6	0.2	7.5	1.5	8	0.05	10	0.5
23	2	1	0.05	1.25	0.0625	2	0.2	2.5	0.5
26	1	5	0.05	6.25	0.3125
28	2	3	0.2	3.75	0.75	7	0.2	8.75	1.75
30	2	3	0.2	3.75	0.75	7	0.2	8.75	1.75
31	2	2	0.05	2.5	0.125	7	0.1	8.75	0.875
39	2	1	0.1	1.25	0.125	4	0.05	5	0.25
40	1	5	0.05	6.25	0.3125
42	2	2	0.1	2.5	0.25	8	0.2	10	2
43	2	4	0.05	5	0.25	6	0.2	7.5	1.5
44	1	7	0.2	8.75	1.75
49	2	6	0.05	7.5	0.375	7	0.05	8.75	0.4375
56	2	4	0.1	5	0.5	6	0.1	7.5	0.75
60	2	3	0.1	3.75	0.375	7	0.2	8.75	1.75
62	1	8	0.05	10	0.5
77	2	3	0.05	3.75	0.1875	6	0.2	7.5	1.5
79	2	3	0.2	3.75	0.75	6	0.05	7.5	0.375
82	2	2	0.05	2.5	0.125	6	0.1	7.5	0.75
83	1	4	0.1	5	0.5
87	1	8	0.05	10	0.5
91	2	1	0.05	1.25	0.0625	2	0.05	2.5	0.125
